Total weight: 1118.8
Route 1: 0 95 92 98 5 83 31 76 12 40 21 73 72 75 22 41 57 15 14 38 86 17 84 6 77 3 79 78 34 35 66 20 32 10 70 1 0 
Route 2: 0 18 85 61 16 44 87 94 8 45 60 97 42 43 37 100 91 93 96 13 89 0 
Route 3: 0 28 29 67 23 2 59 99 88 63 90 65 71 9 81 33 51 30 50 69 27 53 58 26 4 74 56 39 25 55 54 24 80 68 0 
Route 4: 0 52 7 82 47 19 62 11 64 49 36 46 48 0 
